s td 14 37 50
b 1 1 2 4 5 7 8 9 10 12 13 15 16 17 18 19 21 22 24 25 26 27 28 29 30 31 32 35 36 38 40 41 43 44 45 47 49 50
b 2 2 3 5 8 10 12 13 15 16 17 18 19 21 22 24 25 26 27 28 29 31 35 36 38 41 43 44 45 47 49 50
b 3 2 3 5 10 12 13 15 16 17 18 19 21 22 24 25 26 27 28 33 36 38 43 44 47 49
b 4 1 2 4 5 7 8 9 10 12 13 14 15 16 17 18 19 21 22 24 25 26 27 28 29 30 31 32 35 36 38 40 41 43 44 45 47 50
b 5 1 2 4 5 7 8 9 10 12 13 14 15 16 17 18 19 21 22 24 25 26 28 29 30 31 32 35 36 38 40 41 43 44 45 47 48 50
b 6 1 2 4 5 8 9 10 12 13 14 15 16 17 18 19 21 22 24 25 26 28 29 30 31 32 34 35 36 38 40 41 43 44 45 47 48 50
b 7 1 2 4 5 6 8 10 12 13 14 16 17 18 19 21 22 24 25 26 28 29 30 32 34 35 36 38 40 41 43 44 45 47 48 50
b 8 1 2 4 5 6 8 10 12 13 16 17 18 19 20 21 22 24 25 26 28 29 30 32 34 35 36 38 40 41 43 44 47 48 50
b 9 2 4 5 6 8 10 13 16 17 18 19 20 21 22 24 25 26 28 29 30 32 35 36 38 40 42 43 44 47 48 50
b 10 2 5 8 16 19 20 21 22 25 30 32 35 40 42 43 44 46 47 50
b 11 2 5 8 9 10 11 12 13 14 15 16 18 19 24 26 28 29 31 32 34 36 40 44 45 47 48 50
b 12 2 5 9 10 11 12 13 14 18 24 26 28 31 32 37 40 44 45 48 50
b 13 1 2 4 5 7 9 10 13 14 16 19 23 24 27 29 31 36 38 40 45
b 14 1 5 7 9 15 17 18 26 27 28 29 30 36 38 39 40 41 43 45 47 49 50
1 2
1 4
1 14
2 3
4 5
4 13
5 6
6 7
6 11
7 8
8 9
9 10
11 12
